Problem:    
Rows:       260
Columns:    89 (72 integer, 72 binary)
Non-zeros:  974
Status:     INTEGER OPTIMAL
Objective:  value = 98.507887 (MINimum)

   No.   Row name        Activity     Lower bound   Upper bound
------ ------------    ------------- ------------- -------------
     1 r.5                   98.5079             0               
     2 r.6                   55.7838      -976.879               
     3 r.7                   1098.51             0               
     4 r.8                  -950.153      -958.548               
     5 r.9                   1098.51             0               
     6 r.10                 -972.014      -976.818               
     7 r.11                  98.5079             0               
     8 r.12                 -953.873      -958.677               
     9 r.13                  1098.51             0               
    10 r.14                 -950.436      -997.493               
    11 r.15                  98.5079             0               
    12 r.16                  55.5007      -994.431               
    13 r.17                  1098.51             0               
    14 r.18                 -952.943      -995.047               
    15 r.19                  98.5079             0               
    16 r.20                   52.674      -991.601               
    17 r.21                  1098.51             0               
    18 r.22                 -961.006      -988.992               
    19 r.23                  98.5079             0               
    20 r.24                  58.2444      -979.257               
    21 r.25                  1098.51             0               
    22 r.26                 -998.306      -998.306               
    23 r.27                  98.5079             0               
    24 r.28                 -996.067      -996.067               
    25 r.29                  1098.51             0               
    26 r.30                 -901.492      -954.166               
    27 r.31                  98.5079             0               
    28 r.32                  98.5079      -955.702               
    29 r.33                  98.5079             0               
    30 r.34                  98.5079      -955.694               
    31 r.35                  1098.51             0               
    32 r.36                 -901.492       -956.91               
    33 r.37                        1             1             = 
    34 r.38                        1             1             = 
    35 r.39                        1             1             = 
    36 r.40                        1             1             = 
    37 r.41                        1             1             = 
    38 r.42                        1             1             = 
    39 r.43                        1             1             = 
    40 r.44                        1             1             = 
    41 r.45                     1001             2               
    42 r.46                    -1001         -1001               
    43 r.47                  1975.31      -976.818               
    44 r.48                     1001             2               
    45 r.49                    -1001         -1001               
    46 r.50                  993.453      -958.677               
    47 r.51                     1001             2               
    48 r.52                    -1001         -1001               
    49 r.53                  1996.89      -997.493               
    50 r.54                     1001             2               
    51 r.55                    -1001         -1001               
    52 r.56                  2002.83      -994.431               
    53 r.57                     1001             2               
    54 r.58                    -1001         -1001               
    55 r.59                  1994.38      -995.047               
    56 r.60                     1001             2               
    57 r.61                    -1001         -1001               
    58 r.62                     2000      -991.601               
    59 r.63                     1001             2               
    60 r.64                    -1001         -1001               
    61 r.65                  1986.32      -988.992               
    62 r.66                     1001             2               
    63 r.67                    -1001         -1001               
    64 r.68                  2005.57      -979.257               
    65 r.69                  50.9797      -976.879               
    66 r.70                 -954.957      -958.548               
    67 r.71                  1054.68      -976.879               
    68 r.72                  48.7412      -958.548               
    69 r.73                 -954.166      -954.166               
    70 r.74                  45.8339      -955.702               
    71 r.75                 -954.166      -954.166               
    72 r.76                  45.8339      -955.702               
    73 r.77                  45.8339      -955.694               
    74 r.78                 -954.166       -956.91               
    75 r.79                  45.8339      -955.694               
    76 r.80                 -954.166       -956.91               
    77 r.81                     1001             2               
    78 r.82                    -1001         -1001               
    79 r.83                   2027.8       23.1209               
    80 r.84                     1001             2               
    81 r.85                    -1001         -1001               
    82 r.86                  3003.72       41.4525               
    83 r.87                        2             2               
    84 r.88                       -2         -1001               
    85 r.89                 -978.422      -997.493               
    86 r.90                     1000             2               
    87 r.91                    -1000         -1001               
    88 r.92                  3009.37      -994.431               
    89 r.93                        2             2               
    90 r.94                       -2         -1001               
    91 r.95                 -980.929      -995.047               
    92 r.96                     1000             2               
    93 r.97                    -1000         -1001               
    94 r.98                  3006.55      -991.601               
    95 r.99                        2             2               
    96 r.100                      -2         -1001               
    97 r.101                -988.992      -988.992               
    98 r.102                    1000             2               
    99 r.103                   -1000         -1001               
   100 r.104                 3012.12      -979.257               
   101 r.105                -976.818      -976.818               
   102 r.106                -958.677      -958.677               
   103 r.107                 26.8803      -976.818               
   104 r.108                 45.0208      -958.677               
   105 r.109                -929.479      -954.166               
   106 r.110                 70.5215      -955.702               
   107 r.111                  52.381      -954.166               
   108 r.112                 1052.38      -955.702               
   109 r.113                    1001             2               
   110 r.114                   -1001         -1001               
   111 r.115                 2070.52      -955.694               
   112 r.116                    1001             2               
   113 r.117                   -1001         -1001               
   114 r.118                 3052.38       -956.91               
   115 r.119                    1001             2               
   116 r.120                   -1001         -1001               
   117 r.121                 2003.11       23.1209               
   118 r.122                    1001             2               
   119 r.123                   -1001         -1001               
   120 r.124                 1997.17       41.4525               
   121 r.125                       2             2               
   122 r.126                      -2         -1001               
   123 r.127                 975.312       23.1823               
   124 r.128                    1000             2               
   125 r.129                   -1000         -1001               
   126 r.130                 993.453       41.3228               
   127 r.131                       2             2               
   128 r.132                      -2         -1001               
   129 r.133                 -5.6168      -995.047               
   130 r.134                    1000             2               
   131 r.135                   -1000         -1001               
   132 r.136                    2000      -991.601               
   133 r.137                       2             2               
   134 r.138                      -2         -1001               
   135 r.139                -13.6795      -988.992               
   136 r.140                    1000             2               
   137 r.141                   -1000         -1001               
   138 r.142                 2005.57      -979.257               
   139 r.143                 -955.24      -997.493               
   140 r.144                 50.6966      -994.431               
   141 r.145                 48.4581      -997.493               
   142 r.146                 1054.39      -994.431               
   143 r.147                -954.166      -954.166               
   144 r.148                 45.8339      -955.702               
   145 r.149                -954.166      -954.166               
   146 r.150                 45.8339      -955.702               
   147 r.151                 45.8339      -955.694               
   148 r.152                -954.166       -956.91               
   149 r.153                 45.8339      -955.694               
   150 r.154                -954.166       -956.91               
   151 r.155                    1001             2               
   152 r.156                   -1001         -1001               
   153 r.157                 2008.73       23.1209               
   154 r.158                    1001             2               
   155 r.159                   -1001         -1001               
   156 r.160                 1997.17       41.4525               
   157 r.161                       2             2               
   158 r.162                      -2         -1001               
   159 r.163                 980.929       23.1823               
   160 r.164                    1000             2               
   161 r.165                   -1000         -1001               
   162 r.166                 993.453       41.3228               
   163 r.167                       2             2               
   164 r.168                      -2         -1001               
   165 r.169                   2.507         2.507               
   166 r.170                    1000             2               
   167 r.171                   -1000         -1001               
   168 r.172                 2002.83       5.56901               
   169 r.173                       2             2               
   170 r.174                      -2         -1001               
   171 r.175                 -8.0627      -988.992               
   172 r.176                    1000             2               
   173 r.177                   -1000         -1001               
   174 r.178                 2005.57      -979.257               
   175 r.179                -957.747      -995.047               
   176 r.180                 47.8699      -991.601               
   177 r.181                 45.9511      -995.047               
   178 r.182                 1051.57      -991.601               
   179 r.183                -948.549      -954.166               
   180 r.184                 51.4507      -955.702               
   181 r.185                -954.166      -954.166               
   182 r.186                 45.8339      -955.702               
   183 r.187                    1001             2               
   184 r.188                   -1001         -1001               
   185 r.189                 2051.45      -955.694               
   186 r.190                    1001             2               
   187 r.191                   -1001         -1001               
   188 r.192                 2045.83       -956.91               
   189 r.193                    1001             2               
   190 r.194                   -1001         -1001               
   191 r.195                 2013.68       23.1209               
   192 r.196                    1001             2               
   193 r.197                   -1001         -1001               
   194 r.198                 1994.43       41.4525               
   195 r.199                       2             2               
   196 r.200                      -2         -1001               
   197 r.201                 985.882       23.1823               
   198 r.202                    1000             2               
   199 r.203                   -1000         -1001               
   200 r.204                 990.709       41.3228               
   201 r.205                       2             2               
   202 r.206                      -2         -1001               
   203 r.207                  7.4599         2.507               
   204 r.208                    1000             2               
   205 r.209                   -1000         -1001               
   206 r.210                 2000.08       5.56901               
   207 r.211                       2             2               
   208 r.212                      -2         -1001               
   209 r.213                  4.9529        4.9529               
   210 r.214                    1000             2               
   211 r.215                   -1000         -1001               
   212 r.216                 1997.26       8.39884               
   213 r.217                 -965.81      -988.992               
   214 r.218                 53.4403      -979.257               
   215 r.219                 37.8884      -988.992               
   216 r.220                 1057.14      -979.257               
   217 r.221                       2             2               
   218 r.222                      -2         -1001               
   219 r.223                -943.596      -954.166               
   220 r.224                    1000             2               
   221 r.225                   -1000         -1001               
   222 r.226                 2043.09      -955.702               
   223 r.227                 56.4036      -955.694               
   224 r.228                -943.596       -956.91               
   225 r.229                 43.0902      -955.694               
   226 r.230                 -956.91       -956.91               
   227 r.231                -906.296      -954.166               
   228 r.232                 93.7038      -955.702               
   229 r.233                 97.4018      -954.166               
   230 r.234                  1097.4      -955.702               
   231 r.235                       2             2               
   232 r.236                      -2         -1001               
   233 r.237                 940.487       11.0081               
   234 r.238                    1000             2               
   235 r.239                   -1000         -1001               
   236 r.240                 1959.74       20.7431               
   237 r.241                    1001             2               
   238 r.242                   -1001         -1001               
   239 r.243                    2000      -955.694               
   240 r.244                    1001             2               
   241 r.245                   -1001         -1001               
   242 r.246                    2000       -956.91               
   243 r.247                    1001             2               
   244 r.248                   -1001         -1001               
   245 r.249                 1929.48       23.1823               
   246 r.250                    1001             2               
   247 r.251                   -1001         -1001               
   248 r.252                 947.619       41.3228               
   249 r.253                    1001             2               
   250 r.254                   -1001         -1001               
   251 r.255                 1948.55        4.9529               
   252 r.256                    1001             2               
   253 r.257                   -1001         -1001               
   254 r.258                 1954.17       8.39884               
   255 r.259                    1001             2               
   256 r.260                   -1001         -1001               
   257 r.261                    2000       45.8339               
   258 r.262                    1001             2               
   259 r.263                   -1001         -1001               
   260 r.264                    2000       44.2978               

   No. Column name       Activity     Lower bound   Upper bound
------ ------------    ------------- ------------- -------------
     1 tt                    98.5079             0               
     2 s_1_1        *              0             0             1 
     3 t_1_1                 45.8339             0               
     4 s_1_8        *              0             0             1 
     5 s_1_7        *              1             0             1 
     6 s_2_1        *              1             0             1 
     7 t_2_1                 45.8339             0               
     8 s_2_8        *              1             0             1 
     9 s_2_7        *              0             0             1 
    10 s_1_2        *              1             0             1 
    11 t_1_2                 70.5215             0               
    12 s_2_2        *              0             0             1 
    13 t_2_2                 1052.38             0               
    14 s_1_3        *              1             0             1 
    15 t_1_3                 45.8339             0               
    16 s_2_3        *              0             0             1 
    17 t_2_3                 45.8339             0               
    18 s_1_4        *              1             0             1 
    19 t_1_4                 51.4507             0               
    20 s_2_4        *              0             0             1 
    21 t_2_4                 45.8339             0               
    22 s_1_5        *              1             0             1 
    23 t_1_5                 56.4036             0               
    24 s_2_5        *              0             0             1 
    25 t_2_5                 43.0902             0               
    26 s_1_6        *              1             0             1 
    27 t_1_6                 93.7038             0               
    28 s_2_6        *              0             0             1 
    29 t_2_6                  1097.4             0               
    30 t_1_7                       0             0               
    31 t_2_7                       0             0               
    32 t_1_8                       0             0               
    33 t_2_8                       0             0               
    34 r_1_1_2      *              1             0             1 
    35 u_1_1_2      *              0             0             1 
    36 r_2_1_2      *              1             0             1 
    37 u_2_1_2      *              0             0             1 
    38 r_1_1_3      *              1             0             1 
    39 u_1_1_3      *              0             0             1 
    40 r_2_1_3      *              1             0             1 
    41 u_2_1_3      *              0             0             1 
    42 r_1_1_4      *              1             0             1 
    43 u_1_1_4      *              0             0             1 
    44 r_2_1_4      *              1             0             1 
    45 u_2_1_4      *              0             0             1 
    46 r_1_1_5      *              1             0             1 
    47 u_1_1_5      *              0             0             1 
    48 r_2_1_5      *              1             0             1 
    49 u_2_1_5      *              0             0             1 
    50 r_1_2_3      *              0             0             1 
    51 u_1_2_3      *              1             0             1 
    52 r_2_2_3      *              1             0             1 
    53 u_2_2_3      *              0             0             1 
    54 r_1_2_4      *              0             0             1 
    55 u_1_2_4      *              1             0             1 
    56 r_2_2_4      *              1             0             1 
    57 u_2_2_4      *              0             0             1 
    58 r_1_2_5      *              0             0             1 
    59 u_1_2_5      *              1             0             1 
    60 r_2_2_5      *              1             0             1 
    61 u_2_2_5      *              0             0             1 
    62 r_1_2_8      *              1             0             1 
    63 u_1_2_8      *              0             0             1 
    64 r_2_2_8      *              1             0             1 
    65 u_2_2_8      *              0             0             1 
    66 r_1_3_4      *              0             0             1 
    67 u_1_3_4      *              0             0             1 
    68 r_2_3_4      *              1             0             1 
    69 u_2_3_4      *              0             0             1 
    70 r_1_3_5      *              0             0             1 
    71 u_1_3_5      *              0             0             1 
    72 r_2_3_5      *              1             0             1 
    73 u_2_3_5      *              0             0             1 
    74 r_1_4_5      *              0             0             1 
    75 u_1_4_5      *              0             0             1 
    76 r_2_4_5      *              1             0             1 
    77 u_2_4_5      *              0             0             1 
    78 r_1_4_8      *              1             0             1 
    79 u_1_4_8      *              0             0             1 
    80 r_2_4_8      *              1             0             1 
    81 u_2_4_8      *              0             0             1 
    82 r_1_5_7      *              0             0             1 
    83 u_1_5_7      *              1             0             1 
    84 r_2_5_7      *              1             0             1 
    85 u_2_5_7      *              0             0             1 
    86 r_1_7_8      *              1             0             1 
    87 u_1_7_8      *              0             0             1 
    88 r_2_7_8      *              1             0             1 
    89 u_2_7_8      *              0             0             1 

Integer feasibility conditions:

KKT.PE: max.abs.err = 2.27e-13 on row 6
        max.rel.err = 1.08e-16 on row 14
        High quality

KKT.PB: max.abs.err = 2.27e-13 on row 24
        max.rel.err = 2.28e-16 on row 24
        High quality

End of output
